Problem:    
Rows:       248
Columns:    89 (72 integer, 72 binary)
Non-zeros:  820
Status:     INTEGER OPTIMAL
Objective:  value = 54.603366 (MINimum)

   No.   Row name        Activity     Lower bound   Upper bound
------ ------------    ------------- ------------- -------------
     1 r.5                    2054.6             0               
     2 r.6                  -1990.83      -1991.29               
     3 r.7                   54.6034             0               
     4 r.8                   8.72077      -1987.55               
     5 r.9                   54.6034             0               
     6 r.10                 -1950.78      -1990.76               
     7 r.11                   2054.6             0               
     8 r.12                 -1981.81      -1987.53               
     9 r.13                   2054.6             0               
    10 r.14                 -1963.02      -1983.63               
    11 r.15                  54.6034             0               
    12 r.16                 -1936.38      -1982.36               
    13 r.17                   2054.6             0               
    14 r.18                 -1979.38      -1991.56               
    15 r.19                  54.6034             0               
    16 r.20                 -1944.58      -1987.56               
    17 r.21                  54.6034             0               
    18 r.22                   0.4657      -1991.74               
    19 r.23                   2054.6             0               
    20 r.24                 -1971.91      -1990.11               
    21 r.25                  54.6034             0               
    22 r.26                  12.1742      -1976.11               
    23 r.27                   2054.6             0               
    24 r.28                 -1957.02      -1988.11               
    25 r.29                  54.6034             0               
    26 r.30                 -11.7157      -1975.95               
    27 r.31                   2054.6             0               
    28 r.32                  -1945.4      -1988.38               
    29 r.33                   2054.6             0               
    30 r.34                 -1999.53      -1999.53               
    31 r.35                  54.6034             0               
    32 r.36                 -1997.93      -1997.93               
    33 r.37                        1             1             = 
    34 r.38                        1             1             = 
    35 r.39                        1             1             = 
    36 r.40                        1             1             = 
    37 r.41                        1             1             = 
    38 r.42                        1             1             = 
    39 r.43                        1             1             = 
    40 r.44                        1             1             = 
    41 r.45                  37.0481        9.2413               
    42 r.46                 -37.0481      -1991.29               
    43 r.47                  12.4719       12.4719               
    44 r.48                 -12.4719      -1987.55               
    45 r.49                  24.8068       16.3659               
    46 r.50                 -27.8068      -1991.29               
    47 r.51                  57.9014       17.6411               
    48 r.52                 -54.9014      -1987.55               
    49 r.53                   8.4409        8.4409               
    50 r.54                  -8.4409      -1991.29               
    51 r.55                  49.7029       12.4426               
    52 r.56                 -49.7029      -1987.55               
    53 r.57                  1988.29       8.25702               
    54 r.58                 -1988.29      -1991.29               
    55 r.59                  22.3655        9.8936               
    56 r.60                 -22.3655      -1987.55               
    57 r.61                        0      -1973.11               
    58 r.62                 -1969.19      -1985.11               
    59 r.63                  6.45348      -1973.11               
    60 r.64                 -1962.74      -1985.11               
    61 r.65                  1976.11        24.045               
    62 r.66                 -1976.11      -1991.29               
    63 r.67                  48.8826       11.6223               
    64 r.68                 -48.8826      -1987.55               
    65 r.69                 -1988.29      -1988.29               
    66 r.70                  5.25507      -1984.55               
    67 r.71                  10.1047      -1988.29               
    68 r.72                  2003.65      -1984.55               
    69 r.73                  1959.95       8.70854               
    70 r.74                 -1962.95      -1990.76               
    71 r.75                  1990.53       12.4523               
    72 r.76                 -1987.53      -1987.53               
    73 r.77                  1987.76       16.3659               
    74 r.78                 -1990.76      -1990.76               
    75 r.79                  45.4295       17.6411               
    76 r.80                 -42.4295      -1987.53               
    77 r.81                  1971.39        8.4409               
    78 r.82                 -1971.39      -1990.76               
    79 r.83                   37.231       12.4426               
    80 r.84                  -37.231      -1987.53               
    81 r.85                  1951.24       8.25702               
    82 r.86                 -1951.24      -1990.76               
    83 r.87                   9.8936        9.8936               
    84 r.88                  -9.8936      -1987.53               
    85 r.89                  1962.95       23.8899               
    86 r.90                 -1962.95      -1990.76               
    87 r.91                  24.7884       11.8948               
    88 r.92                 -24.7884      -1987.53               
    89 r.93                  1939.06      -1972.95               
    90 r.94                    5.381      -1985.38               
    91 r.95                 -29.9083      -1972.95               
    92 r.96                 -1963.59      -1985.38               
    93 r.97                 -1951.24      -1987.76               
    94 r.98                 -1982.27      -1984.53               
    95 r.99                  47.1529      -1987.76               
    96 r.100                 16.1232      -1984.53               
    97 r.101                 1969.19       8.70854               
    98 r.102                -1972.19      -1983.63               
    99 r.103                  1948.1       12.4523               
   100 r.104                 -1945.1      -1982.36               
   101 r.105                  9.2413        9.2413               
   102 r.106                 -9.2413      -1983.63               
   103 r.107                 1957.57       12.4719               
   104 r.108                -1957.57      -1982.36               
   105 r.109                -1980.63      -1980.63               
   106 r.110                -1959.99      -1979.36               
   107 r.111                -15.4426      -1980.63               
   108 r.112                  5.1985      -1979.36               
   109 r.113                 1960.48       8.25702               
   110 r.114                -1960.48      -1983.63               
   111 r.115                 1967.46        9.8936               
   112 r.116                -1967.46      -1982.36               
   113 r.117                 1972.19       23.8899               
   114 r.118                -1972.19      -1983.63               
   115 r.119                 1982.36       11.8948               
   116 r.120                -1982.36      -1982.36               
   117 r.121                -51.6967      -1972.95               
   118 r.122                -1985.38      -1985.38               
   119 r.123                 1927.66      -1972.95               
   120 r.124                 -6.0188      -1985.38               
   121 r.125                -1960.48      -1980.63               
   122 r.126                -1939.84      -1979.36               
   123 r.127                 37.9116      -1980.63               
   124 r.128                 58.5527      -1979.36               
   125 r.129                 1988.56       8.70854               
   126 r.130                -1991.56      -1991.56               
   127 r.131                  1953.3       12.4523               
   128 r.132                 -1950.3      -1987.56               
   129 r.133                 28.6072        9.2413               
   130 r.134                -28.6072      -1991.56               
   131 r.135                 1962.77       12.4719               
   132 r.136                -1962.77      -1987.56               
   133 r.137                -1980.63      -1980.63               
   134 r.138                -1959.99      -1979.36               
   135 r.139                -15.4426      -1980.63               
   136 r.140                  5.1985      -1979.36               
   137 r.141                 1979.85       8.25702               
   138 r.142                -1979.85      -1991.56               
   139 r.143                 1972.66        9.8936               
   140 r.144                -1972.66      -1987.56               
   141 r.145                 1991.56       23.8899               
   142 r.146                -1991.56      -1991.56               
   143 r.147                 1987.56       11.8948               
   144 r.148                -1987.56      -1987.56               
   145 r.149                -32.3308      -1972.95               
   146 r.150                -1966.01      -1985.38               
   147 r.151                 1932.86      -1972.95               
   148 r.152                 -0.8203      -1985.38               
   149 r.153                -1979.85      -1985.56               
   150 r.154                -1945.04      -1981.56               
   151 r.155                 18.5456      -1985.56               
   152 r.156                 53.3542      -1981.56               
   153 r.157                 8.70854       8.70854               
   154 r.158                -11.7085      -1991.74               
   155 r.159                 1980.63       12.4523               
   156 r.160                -1977.63      -1990.11               
   157 r.161                 48.7567        9.2413               
   158 r.162                -48.7567      -1991.74               
   159 r.163                 1990.11       12.4719               
   160 r.164                -1990.11      -1990.11               
   161 r.165                 36.5154       16.3659               
   162 r.166                -39.5154      -1991.74               
   163 r.167                 35.5359       17.6411               
   164 r.168                -32.5359      -1990.11               
   165 r.169                 20.1494        8.4409               
   166 r.170                -20.1494      -1991.74               
   167 r.171                 27.3374       12.4426               
   168 r.172                -27.3374      -1990.11               
   169 r.173                 11.7085      -1973.11               
   170 r.174                -1957.48      -1985.11               
   171 r.175                 -15.912      -1973.11               
   172 r.176                -1985.11      -1985.11               
   173 r.177                -12.1814      -1972.95               
   174 r.178                -1945.86      -1985.38               
   175 r.179                -39.8019      -1972.95               
   176 r.180                -1973.48      -1985.38               
   177 r.181                       0      -1985.74               
   178 r.182                -1972.38      -1984.11               
   179 r.183                  1998.4      -1985.74               
   180 r.184                 26.0168      -1984.11               
   181 r.185                       0      -1973.11               
   182 r.186                -1969.19      -1985.11               
   183 r.187                 6.45348      -1973.11               
   184 r.188                -1962.74      -1985.11               
   185 r.189                 37.0481        9.2413               
   186 r.190                -37.0481      -1976.11               
   187 r.191                 1975.21       12.4719               
   188 r.192                -1975.21      -1988.11               
   189 r.193                 24.8068       16.3659               
   190 r.194                -27.8068      -1976.11               
   191 r.195                 20.6411       17.6411               
   192 r.196                -17.6411      -1988.11               
   193 r.197                  8.4409        8.4409               
   194 r.198                 -8.4409      -1976.11               
   195 r.199                 12.4426       12.4426               
   196 r.200                -12.4426      -1988.11               
   197 r.201                 11.7085      -1973.11               
   198 r.202                -1957.48      -1985.11               
   199 r.203                 -15.912      -1973.11               
   200 r.204                -1985.11      -1985.11               
   201 r.205                 1976.11        24.045               
   202 r.206                -1976.11      -1976.11               
   203 r.207                 11.6223       11.6223               
   204 r.208                -11.6223      -1988.11               
   205 r.209                 20.8899       8.70854               
   206 r.210                -23.8899      -1975.95               
   207 r.211                 1954.12       12.4523               
   208 r.212                -1951.12      -1988.38               
   209 r.213                 1939.06      -1972.95               
   210 r.214                   5.381      -1985.38               
   211 r.215                -29.9083      -1972.95               
   212 r.216                -1963.59      -1985.38               
   213 r.217                -51.6967      -1972.95               
   214 r.218                -1985.38      -1985.38               
   215 r.219                 1927.66      -1972.95               
   216 r.220                 -6.0188      -1985.38               
   217 r.221                -32.3308      -1972.95               
   218 r.222                -1966.01      -1985.38               
   219 r.223                 1932.86      -1972.95               
   220 r.224                 -0.8203      -1985.38               
   221 r.225                -12.1814      -1972.95               
   222 r.226                -1945.86      -1985.38               
   223 r.227                -39.8019      -1972.95               
   224 r.228                -1973.48      -1985.38               
   225 r.229                 23.8899       23.8899               
   226 r.230                -23.8899      -1975.95               
   227 r.231                 1988.38       11.8948               
   228 r.232                -1988.38      -1988.38               
   229 r.233                -1988.29      -1988.29               
   230 r.234                 5.25507      -1984.55               
   231 r.235                 10.1047      -1988.29               
   232 r.236                 2003.65      -1984.55               
   233 r.237                -1951.24      -1987.76               
   234 r.238                -1982.27      -1984.53               
   235 r.239                 47.1529      -1987.76               
   236 r.240                 16.1232      -1984.53               
   237 r.241                -1960.48      -1980.63               
   238 r.242                -1939.84      -1979.36               
   239 r.243                 37.9116      -1980.63               
   240 r.244                 58.5527      -1979.36               
   241 r.245                -1979.85      -1985.56               
   242 r.246                -1945.04      -1981.56               
   243 r.247                 18.5456      -1985.56               
   244 r.248                 53.3542      -1981.56               
   245 r.249                       0      -1985.74               
   246 r.250                -1972.38      -1984.11               
   247 r.251                  1998.4      -1985.74               
   248 r.252                 26.0168      -1984.11               

   No. Column name       Activity     Lower bound   Upper bound
------ ------------    ------------- ------------- -------------
     1 tt                    54.6034             0               
     2 s_1_1        *              1             0             1 
     3 t_1_1                 42.4291             0               
     4 s_1_6        *              0             0             1 
     5 s_2_1        *              0             0             1 
     6 t_2_1                 48.8826             0               
     7 s_2_6        *              1             0             1 
     8 s_1_2        *              0             0             1 
     9 t_1_2                 2005.38             0               
    10 s_1_7        *              0             0             1 
    11 s_2_2        *              1             0             1 
    12 t_2_2                 36.4107             0               
    13 s_2_7        *              1             0             1 
    14 s_1_3        *              1             0             1 
    15 t_1_3                 14.6223             0               
    16 s_2_3        *              0             0             1 
    17 t_2_3                 1993.98             0               
    18 s_1_4        *              1             0             1 
    19 t_1_4                 33.9882             0               
    20 s_2_4        *              0             0             1 
    21 t_2_4                 1999.18             0               
    22 s_1_5        *              0             0             1 
    23 t_1_5                 54.1377             0               
    24 s_2_5        *              1             0             1 
    25 t_2_5                 26.5171             0               
    26 t_1_6                 42.4291             0               
    27 t_2_6                 11.6223             0               
    28 t_1_7                  66.319             0               
    29 t_2_7                       0             0               
    30 s_1_8        *              1             0             1 
    31 t_1_8                 54.1377             0               
    32 s_2_8        *              0             0             1 
    33 t_2_8                 2052.53             0               
    34 u_1_1_2      *              1             0             1 
    35 u_2_1_2      *              0             0             1 
    36 u_1_1_3      *              0             0             1 
    37 u_2_1_3      *              1             0             1 
    38 u_1_1_4      *              0             0             1 
    39 u_2_1_4      *              1             0             1 
    40 u_1_1_5      *              1             0             1 
    41 u_2_1_5      *              0             0             1 
    42 u_1_1_7      *              1             0             1 
    43 u_2_1_7      *              0             0             1 
    44 u_1_2_1      *              0             0             1 
    45 u_2_2_1      *              1             0             1 
    46 u_1_2_3      *              0             0             1 
    47 u_2_2_3      *              1             0             1 
    48 u_1_2_4      *              0             0             1 
    49 u_2_2_4      *              1             0             1 
    50 u_1_2_5      *              0             0             1 
    51 u_2_2_5      *              0             0             1 
    52 u_1_2_6      *              0             0             1 
    53 u_2_2_6      *              0             0             1 
    54 u_1_3_1      *              1             0             1 
    55 u_2_3_1      *              0             0             1 
    56 u_1_3_2      *              1             0             1 
    57 u_2_3_2      *              0             0             1 
    58 u_1_3_5      *              1             0             1 
    59 u_2_3_5      *              0             0             1 
    60 u_1_3_6      *              1             0             1 
    61 u_2_3_6      *              0             0             1 
    62 u_1_4_1      *              1             0             1 
    63 u_2_4_1      *              0             0             1 
    64 u_1_4_2      *              1             0             1 
    65 u_2_4_2      *              0             0             1 
    66 u_1_4_5      *              1             0             1 
    67 u_2_4_5      *              0             0             1 
    68 u_1_4_6      *              1             0             1 
    69 u_2_4_6      *              0             0             1 
    70 u_1_5_1      *              0             0             1 
    71 u_2_5_1      *              1             0             1 
    72 u_1_5_2      *              1             0             1 
    73 u_2_5_2      *              1             0             1 
    74 u_1_5_3      *              0             0             1 
    75 u_2_5_3      *              1             0             1 
    76 u_1_5_4      *              0             0             1 
    77 u_2_5_4      *              1             0             1 
    78 u_1_6_2      *              1             0             1 
    79 u_2_6_2      *              1             0             1 
    80 u_1_6_3      *              0             0             1 
    81 u_2_6_3      *              1             0             1 
    82 u_1_6_4      *              0             0             1 
    83 u_2_6_4      *              1             0             1 
    84 u_1_6_7      *              1             0             1 
    85 u_2_6_7      *              0             0             1 
    86 u_1_7_1      *              0             0             1 
    87 u_2_7_1      *              1             0             1 
    88 u_1_7_6      *              0             0             1 
    89 u_2_7_6      *              1             0             1 

Integer feasibility conditions:

KKT.PE: max.abs.err = 0.00e+00 on row 0
        max.rel.err = 0.00e+00 on row 0
        High quality

KKT.PB: max.abs.err = 1.03e-13 on row 225
        max.rel.err = 8.85e-15 on row 101
        High quality

End of output
